nodes = 830;
edges = 1815;
starts = [1, 1, 1, 2, 2, 3, 4, 4, 4, 5, 6, 6, 7, 7, 7, 8, 8, 9, 9, 9, 10, 11, 11, 12, 12, 12, 12, 13, 13, 14, 14, 15, 15, 16, 16, 16, 17, 17, 17, 18, 19, 20, 20, 21, 21, 22, 22, 23, 23, 24, 24, 25, 25, 26, 26, 27, 27, 28, 28, 28, 29, 29, 30, 30, 30, 31, 31, 32, 32, 33, 34, 34, 35, 35, 36, 36, 37, 37, 37, 37, 38, 39, 39, 39, 40, 40, 40, 41, 42, 43, 43, 44, 45, 45, 46, 47, 47, 47, 48, 48, 48, 49, 49, 49, 50, 50, 50, 51, 51, 52, 53, 53, 53, 54, 54, 54, 55, 55, 56, 56, 57, 57, 57, 58, 59, 60, 60, 60, 61, 61, 62, 63, 64, 64, 64, 65, 65, 66, 66, 66, 67, 67, 68, 68, 68, 69, 69, 70, 70, 71, 71, 71, 72, 72, 72, 73, 73, 74, 75, 75, 75, 76, 76, 77, 77, 78, 78, 79, 79, 80, 80, 81, 81, 82, 82, 83, 83, 84, 84, 84, 85, 85, 85, 86, 86, 87, 87, 87, 88, 88, 88, 89, 89, 89, 90, 91, 91, 91, 92, 92, 92, 93, 93, 93, 94, 95, 95, 95, 96, 96, 97, 97, 97, 98, 98, 99, 99, 100, 100, 101, 101, 102, 102, 103, 103, 104, 104, 104, 105, 105, 106, 106, 106, 106, 107, 107, 108, 108, 108, 109, 109, 109, 109, 110, 110, 110, 111, 111, 112, 112, 112, 113, 113, 114, 114, 115, 116, 116, 116, 117, 117, 118, 118, 119, 119, 120, 120, 121, 121, 122, 123, 123, 124, 124, 124, 125, 125, 125, 126, 126, 127, 127, 128, 128, 129, 129, 130, 130, 130, 131, 131, 132, 132, 133, 133, 134, 134, 135, 136, 136, 137, 137, 138, 138, 138, 138, 139, 139, 140, 140, 141, 142, 143, 143, 144, 145, 145, 145, 145, 146, 146, 147, 147, 147, 148, 149, 150, 151, 151, 151, 152, 152, 152, 153, 154, 154, 155, 155, 156, 156, 156, 156, 157, 157, 157, 157, 158, 158, 158, 159, 159, 159, 160, 161, 162, 162, 163, 164, 164, 165, 165, 166, 166, 166, 167, 167, 167, 168, 169, 169, 169, 170, 170, 171, 171, 171, 172, 172, 173, 173, 174, 174, 175, 175, 175, 176, 177, 177, 178, 178, 178, 179, 179, 179, 180, 180, 180, 180, 181, 181, 182, 183, 183, 183, 184, 184, 185, 185, 185, 186, 186, 187, 187, 188, 188, 189, 189, 189, 190, 190, 190, 191, 191, 192, 193, 193, 194, 195, 195, 196, 196, 197, 198, 198, 198, 199, 199, 199, 200, 200, 201, 201, 202, 203, 203, 204, 205, 205, 206, 207, 207, 208, 208, 209, 209, 210, 210, 211, 211, 212, 212, 213, 213, 214, 214, 215, 215, 216, 216, 217, 217, 218, 218, 218, 219, 220, 220, 221, 221, 221, 222, 223, 223, 224, 224, 225, 225, 225, 226, 227, 227, 228, 228, 229, 229, 229, 230, 230, 231, 231, 232, 232, 233, 233, 233, 234, 234, 235, 235, 235, 236, 236, 236, 236, 237, 237, 237, 238, 239, 239, 239, 240, 240, 240, 241, 241, 241, 242, 242, 243, 243, 244, 245, 245, 246, 246, 247, 247, 247, 248, 248, 249, 250, 250, 250, 251, 251, 251, 252, 252, 252, 253, 253, 253, 254, 254, 255, 255, 255, 256, 256, 257, 257, 258, 258, 259, 259, 260, 260, 261, 262, 262, 263, 264, 264, 265, 265, 266, 266, 267, 268, 269, 269, 270, 270, 271, 271, 272, 272, 272, 273, 273, 274, 274, 274, 275, 275, 275, 276, 276, 277, 277, 278, 278, 279, 279, 279, 280, 280, 281, 282, 283, 284, 284, 285, 285, 286, 286, 287, 287, 288, 288, 289, 289, 290, 290, 291, 291, 291, 292, 292, 293, 293, 294, 294, 295, 295, 295, 296, 296, 296, 297, 297, 298, 298, 298, 299, 299, 299, 300, 300, 300, 301, 301, 301, 302, 302, 303, 303, 304, 304, 305, 306, 306, 306, 307, 307, 307, 308, 309, 309, 310, 310, 311, 312, 312, 313, 313, 313, 314, 314, 315, 315, 316, 316, 316, 317, 317, 317, 317, 318, 318, 319, 320, 320, 320, 321, 321, 321, 322, 322, 323, 323, 324, 324, 325, 325, 326, 326, 327, 328, 328, 328, 329, 330, 331, 331, 332, 333, 333, 334, 335, 335, 336, 337, 338, 338, 338, 339, 339, 339, 340, 341, 341, 342, 342, 343, 343, 344, 344, 345, 345, 346, 346, 346, 347, 347, 348, 348, 349, 349, 350, 350, 351, 351, 352, 352, 353, 354, 355, 355, 355, 356, 356, 357, 357, 358, 358, 358, 359, 359, 360, 361, 362, 362, 363, 363, 363, 364, 364, 364, 365, 365, 366, 366, 366, 367, 367, 367, 368, 368, 369, 369, 370, 371, 372, 372, 372, 373, 374, 374, 374, 375, 376, 376, 377, 377, 377, 378, 378, 379, 379, 380, 380, 380, 381, 381, 381, 382, 382, 382, 383, 383, 384, 384, 385, 386, 386, 387, 387, 388, 388, 389, 389, 390, 391, 391, 392, 392, 392, 393, 393, 393, 393, 394, 394, 395, 395, 395, 396, 396, 397, 397, 397, 398, 398, 399, 400, 400, 400, 401, 402, 402, 403, 403, 404, 404, 404, 405, 406, 406, 407, 407, 407, 408, 408, 408, 409, 409, 410, 410, 410, 411, 411, 412, 413, 413, 414, 414, 415, 415, 416, 416, 417, 417, 417, 418, 419, 419, 419, 420, 420, 421, 421, 422, 422, 423, 423, 423, 424, 424, 425, 425, 425, 425, 426, 426, 426, 427, 427, 427, 428, 429, 429, 429, 430, 430, 430, 431, 431, 432, 432, 433, 433, 434, 434, 434, 435, 435, 436, 436, 436, 436, 437, 437, 438, 438, 438, 439, 439, 440, 440, 441, 441, 442, 442, 442, 443, 443, 444, 444, 445, 446, 446, 447, 447, 447, 448, 448, 448, 449, 449, 449, 450, 450, 450, 450, 451, 451, 451, 451, 452, 452, 452, 453, 453, 454, 454, 454, 455, 455, 456, 457, 458, 458, 459, 460, 460, 460, 461, 462, 462, 463, 463, 464, 464, 464, 465, 465, 465, 466, 466, 467, 467, 467, 468, 468, 469, 469, 470, 470, 471, 471, 471, 472, 472, 473, 474, 474, 475, 475, 476, 476, 477, 477, 478, 478, 478, 479, 480, 480, 481, 482, 482, 482, 483, 483, 483, 484, 485, 485, 486, 487, 488, 489, 489, 489, 490, 490, 490, 491, 491, 491, 492, 492, 492, 493, 493, 493, 494, 494, 495, 495, 496, 496, 496, 497, 497, 498, 498, 498, 499, 499, 500, 500, 501, 501, 501, 502, 502, 502, 503, 503, 503, 504, 504, 505, 505, 506, 506, 507, 507, 507, 508, 509, 509, 510, 510, 510, 511, 511, 511, 512, 512, 512, 512, 513, 513, 514, 514, 514, 515, 515, 516, 516, 516, 517, 517, 518, 518, 519, 519, 520, 520, 520, 521, 521, 521, 522, 522, 523, 524, 525, 526, 526, 526, 527, 527, 527, 528, 528, 529, 529, 530, 530, 530, 531, 531, 531, 531, 532, 532, 532, 533, 533, 534, 534, 535, 535, 536, 536, 536, 537, 538, 538, 538, 539, 539, 540, 540, 541, 541, 541, 542, 542, 543, 543, 544, 544, 544, 545, 545, 546, 546, 546, 547, 547, 548, 548, 548, 549, 550, 550, 551, 552, 552, 553, 553, 554, 554, 555, 556, 556, 557, 557, 558, 558, 559, 559, 560, 560, 560, 561, 561, 562, 562, 563, 564, 564, 565, 565, 566, 566, 566, 567, 567, 567, 568, 568, 569, 569, 570, 570, 570, 571, 571, 572, 572, 572, 573, 573, 574, 574, 575, 575, 576, 576, 577, 577, 578, 578, 579, 579, 580, 580, 580, 581, 582, 582, 582, 583, 583, 583, 584, 585, 585, 586, 587, 587, 587, 588, 588, 588, 589, 589, 590, 590, 591, 591, 592, 592, 593, 593, 594, 594, 595, 595, 596, 596, 596, 597, 598, 598, 599, 600, 600, 600, 601, 601, 601, 602, 602, 602, 603, 603, 603, 604, 605, 605, 605, 606, 606, 607, 607, 608, 608, 608, 608, 609, 609, 609, 610, 610, 611, 611, 611, 612, 612, 613, 613, 614, 614, 615, 615, 615, 616, 617, 617, 617, 618, 618, 619, 620, 620, 621, 621, 621, 622, 622, 623, 623, 623, 624, 624, 624, 625, 626, 626, 626, 627, 627, 628, 628, 628, 629, 629, 629, 630, 630, 631, 632, 632, 633, 633, 634, 635, 636, 636, 636, 637, 637, 637, 638, 639, 639, 640, 640, 641, 641, 642, 642, 643, 643, 644, 644, 645, 645, 645, 646, 647, 647, 648, 648, 648, 649, 649, 649, 650, 650, 651, 651, 651, 652, 652, 652, 653, 654, 654, 655, 655, 655, 656, 657, 657, 658, 659, 659, 659, 660, 661, 662, 662, 662, 663, 664, 664, 664, 665, 665, 666, 666, 667, 667, 668, 668, 669, 669, 670, 670, 671, 671, 671, 672, 672, 672, 673, 673, 674, 674, 675, 675, 676, 676, 677, 677, 678, 678, 678, 679, 679, 679, 680, 680, 680, 681, 682, 682, 683, 683, 684, 684, 685, 685, 686, 686, 687, 687, 687, 688, 688, 689, 689, 690, 690, 691, 691, 692, 692, 693, 693, 693, 694, 694, 695, 695, 695, 696, 696, 697, 697, 697, 698, 698, 699, 699, 700, 700, 700, 701, 701, 702, 702, 703, 704, 704, 704, 704, 705, 705, 705, 706, 706, 707, 708, 708, 708, 709, 709, 709, 710, 711, 711, 712, 712, 713, 714, 714, 715, 715, 716, 717, 717, 718, 719, 719, 719, 720, 720, 721, 721, 722, 722, 723, 723, 724, 724, 724, 725, 725, 725, 726, 726, 726, 727, 728, 728, 728, 729, 729, 730, 730, 731, 731, 731, 732, 732, 733, 733, 734, 734, 735, 735, 735, 736, 736, 736, 737, 738, 738, 739, 739, 739, 740, 741, 741, 742, 742, 742, 742, 743, 743, 743, 744, 744, 744, 745, 745, 746, 746, 747, 747, 748, 748, 749, 749, 750, 750, 751, 751, 752, 752, 753, 753, 753, 754, 754, 754, 755, 756, 756, 756, 757, 757, 758, 758, 758, 759, 759, 760, 760, 760, 761, 761, 762, 762, 763, 763, 763, 763, 764, 764, 764, 765, 765, 765, 766, 767, 767, 768, 768, 768, 769, 769, 770, 770, 771, 772, 772, 773, 773, 774, 774, 775, 775, 775, 776, 776, 777, 777, 778, 779, 779, 780, 780, 780, 781, 781, 782, 782, 782, 783, 783, 784, 784, 784, 785, 785, 786, 786, 787, 787, 788, 788, 789, 789, 790, 791, 791, 791, 792, 793, 793, 794, 794, 794, 795, 795, 795, 796, 796, 797, 797, 797, 798, 798, 799, 799, 799, 800, 800, 801, 801, 802, 802, 803, 803, 803, 804, 805, 805, 805, 806, 806, 806, 807, 807, 807, 808, 808, 809, 809, 810, 811, 811, 812, 812, 812, 813, 813, 814, 815, 815, 816, 816, 817, 817, 818, 818, 818, 819, 819, 820, 820, 821, 821, 821, 822, 823, 823, 824, 824, 824, 825, 825, 825, 826, 826, 827, 827, 828, 828, 829, 829, 830, 830];
ends = [69, 649, 830, 153, 229, 141, 28, 88, 553, 95, 410, 749, 29, 61, 636, 6, 404, 30, 190, 426, 516, 307, 817, 199, 423, 441, 521, 255, 757, 15, 208, 29, 61, 169, 339, 469, 401, 411, 724, 318, 191, 24, 818, 181, 262, 295, 525, 249, 350, 326, 342, 474, 614, 306, 707, 333, 477, 4, 188, 448, 7, 37, 9, 317, 451, 385, 388, 117, 475, 493, 226, 401, 577, 793, 47, 383, 29, 38, 405, 417, 37, 43, 200, 202, 74, 511, 820, 251, 225, 259, 660, 251, 126, 337, 407, 50, 58, 621, 246, 291, 420, 116, 530, 709, 47, 66, 746, 238, 372, 50, 331, 529, 768, 52, 55, 482, 54, 346, 296, 364, 328, 431, 809, 232, 167, 185, 332, 617, 14, 515, 375, 98, 118, 374, 467, 189, 217, 306, 645, 707, 46, 804, 46, 193, 476, 1, 186, 323, 775, 442, 443, 672, 146, 216, 237, 146, 382, 40, 212, 246, 799, 36, 73, 125, 486, 79, 260, 256, 798, 298, 828, 298, 740, 276, 293, 158, 706, 99, 171, 790, 87, 163, 304, 296, 758, 85, 88, 733, 4, 87, 89, 88, 106, 347, 225, 355, 377, 380, 431, 546, 548, 83, 478, 706, 432, 5, 434, 507, 437, 763, 144, 147, 316, 18, 103, 84, 697, 104, 357, 600, 770, 719, 778, 98, 649, 62, 100, 406, 420, 602, 89, 316, 738, 739, 565, 691, 170, 550, 749, 241, 410, 749, 751, 111, 116, 299, 110, 299, 121, 556, 714, 65, 514, 214, 717, 197, 49, 107, 110, 206, 359, 238, 372, 295, 305, 243, 280, 336, 715, 243, 497, 744, 125, 516, 705, 77, 124, 673, 131, 166, 124, 673, 274, 369, 127, 422, 166, 248, 652, 151, 807, 129, 314, 135, 149, 70, 132, 134, 25, 618, 138, 606, 137, 372, 464, 583, 482, 639, 143, 472, 13, 775, 151, 472, 349, 207, 209, 632, 683, 73, 306, 97, 554, 693, 235, 133, 543, 143, 172, 807, 279, 425, 718, 452, 162, 192, 156, 301, 155, 159, 214, 620, 428, 430, 680, 748, 83, 309, 478, 156, 620, 621, 303, 540, 160, 526, 85, 150, 541, 342, 651, 126, 130, 337, 59, 334, 820, 364, 16, 233, 377, 557, 762, 131, 166, 807, 171, 485, 174, 816, 173, 527, 320, 546, 805, 675, 560, 720, 180, 548, 795, 352, 400, 796, 178, 403, 558, 595, 177, 720, 505, 367, 460, 507, 80, 616, 60, 215, 510, 69, 666, 405, 600, 28, 545, 65, 292, 427, 9, 427, 672, 566, 625, 312, 68, 641, 508, 165, 309, 234, 619, 269, 105, 223, 655, 12, 516, 772, 39, 268, 3, 395, 379, 488, 596, 223, 561, 725, 361, 145, 687, 15, 752, 145, 392, 369, 523, 212, 635, 75, 217, 211, 801, 114, 156, 185, 213, 72, 288, 65, 215, 253, 771, 822, 220, 219, 221, 220, 222, 224, 221, 198, 414, 638, 642, 42, 90, 603, 481, 192, 303, 370, 538, 2, 231, 721, 358, 520, 234, 286, 55, 787, 169, 377, 380, 653, 781, 148, 209, 632, 245, 326, 368, 818, 104, 357, 375, 120, 465, 687, 786, 247, 503, 628, 109, 410, 544, 558, 766, 118, 374, 824, 236, 294, 48, 113, 240, 465, 687, 130, 522, 289, 576, 659, 819, 41, 44, 325, 424, 730, 774, 218, 254, 261, 253, 661, 117, 258, 475, 257, 262, 78, 785, 255, 263, 43, 555, 79, 585, 535, 21, 257, 258, 254, 261, 605, 829, 640, 797, 627, 39, 63, 716, 272, 823, 108, 378, 267, 270, 492, 275, 537, 128, 311, 476, 273, 320, 751, 293, 512, 194, 508, 106, 586, 152, 331, 510, 284, 623, 688, 494, 550, 122, 571, 72, 288, 2, 231, 136, 351, 285, 698, 31, 747, 282, 513, 48, 491, 655, 189, 748, 276, 755, 245, 615, 119, 305, 509, 56, 86, 544, 552, 622, 80, 81, 633, 110, 111, 556, 320, 729, 795, 155, 408, 787, 407, 794, 154, 723, 85, 529, 119, 66, 76, 146, 11, 335, 538, 19, 158, 470, 692, 694, 274, 226, 281, 438, 651, 728, 129, 442, 290, 517, 97, 106, 553, 30, 449, 554, 672, 395, 421, 205, 175, 275, 300, 590, 596, 783, 23, 659, 70, 132, 560, 792, 251, 631, 24, 821, 632, 57, 458, 806, 612, 436, 53, 279, 622, 27, 742, 167, 307, 461, 466, 803, 463, 700, 763, 16, 469, 763, 547, 343, 685, 165, 470, 685, 688, 582, 697, 196, 231, 55, 408, 482, 89, 733, 773, 780, 161, 779, 315, 592, 287, 742, 179, 498, 724, 813, 91, 358, 810, 393, 500, 216, 237, 230, 355, 368, 528, 634, 826, 22, 45, 360, 245, 527, 821, 56, 168, 365, 364, 805, 459, 809, 813, 183, 507, 679, 380, 493, 128, 523, 488, 51, 51, 138, 389, 448, 62, 64, 406, 26, 279, 756, 91, 169, 233, 200, 202, 259, 555, 91, 233, 818, 408, 629, 752, 73, 285, 383, 382, 384, 383, 701, 34, 385, 388, 371, 389, 184, 828, 138, 699, 561, 500, 593, 148, 209, 393, 356, 392, 394, 503, 393, 593, 18, 201, 398, 759, 793, 674, 706, 723, 18, 103, 624, 179, 669, 750, 534, 454, 480, 180, 611, 8, 542, 758, 435, 122, 571, 302, 599, 759, 301, 346, 381, 539, 713, 6, 241, 404, 17, 536, 776, 353, 536, 223, 416, 495, 788, 412, 498, 37, 600, 731, 572, 519, 646, 647, 48, 799, 3, 395, 133, 134, 12, 424, 501, 423, 765, 152, 448, 450, 489, 9, 451, 490, 189, 190, 430, 157, 90, 560, 789, 157, 427, 648, 92, 611, 329, 403, 249, 322, 95, 727, 756, 176, 436, 330, 435, 551, 617, 96, 609, 313, 445, 572, 518, 532, 648, 680, 12, 705, 71, 314, 446, 442, 648, 67, 804, 658, 71, 502, 554, 672, 693, 28, 373, 425, 317, 450, 451, 425, 449, 671, 704, 30, 426, 449, 704, 222, 224, 702, 457, 791, 340, 402, 456, 402, 454, 402, 99, 328, 354, 366, 183, 675, 679, 814, 464, 467, 338, 678, 138, 462, 626, 239, 247, 628, 336, 715, 64, 462, 645, 506, 615, 339, 478, 20, 309, 651, 728, 821, 140, 310, 307, 614, 624, 255, 757, 68, 274, 480, 742, 93, 158, 469, 332, 455, 477, 808, 54, 139, 346, 256, 792, 798, 643, 624, 790, 77, 162, 203, 425, 490, 704, 426, 489, 704, 291, 514, 655, 272, 415, 495, 33, 230, 245, 513, 559, 492, 630, 605, 613, 732, 520, 736, 352, 623, 700, 484, 639, 356, 391, 423, 512, 764, 446, 607, 693, 207, 240, 393, 520, 736, 182, 754, 522, 570, 95, 183, 367, 376, 305, 681, 185, 279, 756, 40, 494, 724, 276, 501, 521, 764, 517, 574, 113, 491, 664, 14, 629, 10, 125, 199, 575, 592, 123, 524, 419, 702, 230, 497, 744, 12, 512, 664, 84, 506, 604, 22, 45, 572, 665, 710, 174, 294, 363, 584, 634, 53, 304, 49, 107, 730, 582, 608, 631, 824, 437, 439, 562, 587, 589, 319, 411, 267, 270, 411, 413, 725, 264, 137, 228, 583, 21, 181, 164, 541, 349, 540, 543, 8, 762, 541, 739, 241, 296, 758, 188, 718, 92, 175, 800, 362, 692, 92, 178, 795, 94, 108, 378, 297, 635, 801, 4, 316, 447, 671, 273, 112, 299, 170, 283, 94, 595, 494, 511, 177, 324, 429, 205, 390, 532, 601, 662, 343, 682, 107, 730, 191, 483, 690, 587, 589, 603, 139, 473, 414, 416, 84, 615, 816, 100, 406, 418, 438, 526, 504, 652, 513, 559, 517, 574, 433, 688, 35, 578, 35, 582, 580, 585, 579, 588, 783, 662, 344, 531, 578, 11, 538, 626, 689, 260, 579, 278, 186, 567, 735, 78, 580, 785, 566, 625, 321, 588, 676, 678, 575, 659, 391, 394, 387, 590, 729, 795, 321, 594, 598, 782, 488, 596, 407, 101, 187, 417, 562, 667, 708, 105, 204, 799, 225, 567, 789, 597, 204, 265, 496, 598, 699, 348, 502, 531, 564, 726, 769, 437, 562, 708, 533, 663, 403, 431, 612, 459, 611, 75, 496, 140, 310, 294, 468, 573, 487, 60, 436, 679, 136, 287, 771, 58, 156, 47, 159, 695, 297, 479, 280, 591, 684, 399, 474, 485, 610, 583, 637, 817, 275, 537, 240, 465, 819, 381, 515, 630, 629, 823, 769, 235, 327, 298, 745, 667, 613, 7, 329, 753, 462, 626, 645, 568, 638, 642, 797, 827, 193, 266, 153, 643, 229, 484, 647, 656, 66, 637, 746, 419, 419, 644, 430, 440, 443, 1, 103, 757, 253, 661, 165, 313, 658, 130, 468, 573, 650, 653, 781, 198, 291, 491, 654, 644, 656, 195, 250, 322, 592, 657, 660, 210, 581, 686, 115, 514, 521, 703, 160, 526, 32, 528, 584, 601, 96, 439, 400, 717, 527, 824, 449, 450, 554, 71, 190, 317, 127, 422, 227, 397, 194, 460, 409, 743, 369, 686, 463, 591, 684, 367, 460, 617, 157, 441, 705, 737, 677, 769, 341, 682, 623, 700, 576, 786, 145, 683, 207, 239, 247, 564, 608, 567, 666, 42, 566, 112, 556, 547, 694, 147, 447, 502, 25, 618, 384, 621, 701, 695, 796, 173, 344, 816, 695, 696, 594, 598, 338, 412, 498, 285, 698, 452, 519, 664, 450, 451, 489, 490, 124, 440, 680, 93, 397, 64, 601, 609, 789, 49, 719, 812, 722, 712, 735, 711, 830, 743, 112, 565, 121, 714, 712, 669, 752, 545, 102, 709, 765, 539, 713, 345, 499, 81, 740, 154, 397, 17, 353, 511, 205, 319, 536, 608, 670, 728, 434, 313, 471, 726, 300, 492, 252, 530, 101, 417, 825, 265, 552, 87, 347, 665, 710, 69, 587, 711, 504, 652, 803, 361, 144, 739, 106, 543, 741, 767, 106, 278, 333, 351, 477, 827, 676, 678, 802, 518, 668, 763, 633, 812, 50, 784, 23, 282, 157, 292, 108, 109, 825, 829, 109, 815, 208, 717, 176, 636, 754, 505, 753, 760, 734, 376, 434, 510, 13, 649, 86, 404, 544, 325, 407, 277, 754, 761, 760, 768, 170, 542, 96, 338, 339, 744, 501, 512, 765, 424, 530, 719, 549, 102, 778, 53, 331, 761, 128, 677, 187, 551, 218, 199, 774, 323, 775, 252, 772, 142, 773, 780, 569, 674, 82, 755, 777, 348, 607, 142, 161, 779, 234, 286, 210, 563, 604, 321, 580, 637, 746, 817, 387, 588, 239, 819, 155, 301, 242, 629, 429, 708, 453, 396, 457, 794, 483, 396, 577, 302, 444, 791, 178, 300, 595, 352, 696, 266, 641, 811, 308, 483, 75, 420, 602, 805, 806, 213, 479, 463, 743, 123, 524, 736, 302, 175, 365, 800, 92, 328, 800, 151, 171, 172, 386, 616, 57, 366, 355, 811, 797, 116, 709, 745, 354, 809, 228, 271, 379, 570, 697, 11, 784, 20, 236, 380, 250, 628, 40, 167, 326, 363, 471, 218, 272, 630, 244, 531, 670, 669, 731, 750, 119, 525, 640, 742, 31, 281, 265, 825, 1, 712];
weights = [1, 1, 1, 1, 1, 1, 1, 1, 1, 1, 1, 1, 1, 1, 1, 1, 1, 1, 1, 1, 1, 1, 1, 1, 1, 1, 1, 1, 1, 1, 1, 1, 1, 1, 1, 1, 1, 1, 1, 1, 1, 1, 1, 1, 1, 1, 1, 1, 1, 1, 1, 1, 1, 1, 1, 1, 1, 1, 1, 1, 1, 1, 1, 1, 1, 1, 1, 1, 1, 1, 1, 1, 1, 1, 1, 1, 1, 1, 1, 1, 1, 1, 1, 1, 1, 1, 1, 1, 1, 1, 1, 1, 1, 1, 1, 1, 1, 1, 1, 1, 1, 1, 1, 1, 1, 1, 1, 1, 1, 1, 1, 1, 1, 1, 1, 1, 1, 1, 1, 1, 1, 1, 1, 1, 1, 1, 1, 1, 1, 1, 1, 1, 1, 1, 1, 1, 1, 1, 1, 1, 1, 1, 1, 1, 1, 1, 1, 1, 1, 1, 1, 1, 1, 1, 1, 1, 1, 1, 1, 1, 1, 1, 1, 1, 1, 1, 1, 1, 1, 1, 1, 1, 1, 1, 1, 1, 1, 1, 1, 1, 1, 1, 1, 1, 1, 1, 1, 1, 1, 1, 1, 1, 1, 1, 1, 1, 1, 1, 1, 1, 1, 1, 1, 1, 1, 1, 1, 1, 1, 1, 1, 1, 1, 1, 1, 1, 1, 1, 1, 1, 1, 1, 1, 1, 1, 1, 1, 1, 1, 1, 1, 1, 1, 1, 1, 1, 1, 1, 1, 1, 1, 1, 1, 1, 1, 1, 1, 1, 1, 1, 1, 1, 1, 1, 1, 1, 1, 1, 1, 1, 1, 1, 1, 1, 1, 1, 1, 1, 1, 1, 1, 1, 1, 1, 1, 1, 1, 1, 1, 1, 1, 1, 1, 1, 1, 1, 1, 1, 1, 1, 1, 1, 1, 1, 1, 1, 1, 1, 1, 1, 1, 1, 1, 1, 1, 1, 1, 1, 1, 1, 1, 1, 1, 1, 1, 1, 1, 1, 1, 1, 1, 1, 1, 1, 1, 1, 1, 1, 1, 1, 1, 1, 1, 1, 1, 1, 1, 1, 1, 1, 1, 1, 1, 1, 1, 1, 1, 1, 1, 1, 1, 1, 1, 1, 1, 1, 1, 1, 1, 1, 1, 1, 1, 1, 1, 1, 1, 1, 1, 1, 1, 1, 1, 1, 1, 1, 1, 1, 1, 1, 1, 1, 1, 1, 1, 1, 1, 1, 1, 1, 1, 1, 1, 1, 1, 1, 1, 1, 1, 1, 1, 1, 1, 1, 1, 1, 1, 1, 1, 1, 1, 1, 1, 1, 1, 1, 1, 1, 1, 1, 1, 1, 1, 1, 1, 1, 1, 1, 1, 1, 1, 1, 1, 1, 1, 1, 1, 1, 1, 1, 1, 1, 1, 1, 1, 1, 1, 1, 1, 1, 1, 1, 1, 1, 1, 1, 1, 1, 1, 1, 1, 1, 1, 1, 1, 1, 1, 1, 1, 1, 1, 1, 1, 1, 1, 1, 1, 1, 1, 1, 1, 1, 1, 1, 1, 1, 1, 1, 1, 1, 1, 1, 1, 1, 1, 1, 1, 1, 1, 1, 1, 1, 1, 1, 1, 1, 1, 1, 1, 1, 1, 1, 1, 1, 1, 1, 1, 1, 1, 1, 1, 1, 1, 1, 1, 1, 1, 1, 1, 1, 1, 1, 1, 1, 1, 1, 1, 1, 1, 1, 1, 1, 1, 1, 1, 1, 1, 1, 1, 1, 1, 1, 1, 1, 1, 1, 1, 1, 1, 1, 1, 1, 1, 1, 1, 1, 1, 1, 1, 1, 1, 1, 1, 1, 1, 1, 1, 1, 1, 1, 1, 1, 1, 1, 1, 1, 1, 1, 1, 1, 1, 1, 1, 1, 1, 1, 1, 1, 1, 1, 1, 1, 1, 1, 1, 1, 1, 1, 1, 1, 1, 1, 1, 1, 1, 1, 1, 1, 1, 1, 1, 1, 1, 1, 1, 1, 1, 1, 1, 1, 1, 1, 1, 1, 1, 1, 1, 1, 1, 1, 1, 1, 1, 1, 1, 1, 1, 1, 1, 1, 1, 1, 1, 1, 1, 1, 1, 1, 1, 1, 1, 1, 1, 1, 1, 1, 1, 1, 1, 1, 1, 1, 1, 1, 1, 1, 1, 1, 1, 1, 1, 1, 1, 1, 1, 1, 1, 1, 1, 1, 1, 1, 1, 1, 1, 1, 1, 1, 1, 1, 1, 1, 1, 1, 1, 1, 1, 1, 1, 1, 1, 1, 1, 1, 1, 1, 1, 1, 1, 1, 1, 1, 1, 1, 1, 1, 1, 1, 1, 1, 1, 1, 1, 1, 1, 1, 1, 1, 1, 1, 1, 1, 1, 1, 1, 1, 1, 1, 1, 1, 1, 1, 1, 1, 1, 1, 1, 1, 1, 1, 1, 1, 1, 1, 1, 1, 1, 1, 1, 1, 1, 1, 1, 1, 1, 1, 1, 1, 1, 1, 1, 1, 1, 1, 1, 1, 1, 1, 1, 1, 1, 1, 1, 1, 1, 1, 1, 1, 1, 1, 1, 1, 1, 1, 1, 1, 1, 1, 1, 1, 1, 1, 1, 1, 1, 1, 1, 1, 1, 1, 1, 1, 1, 1, 1, 1, 1, 1, 1, 1, 1, 1, 1, 1, 1, 1, 1, 1, 1, 1, 1, 1, 1, 1, 1, 1, 1, 1, 1, 1, 1, 1, 1, 1, 1, 1, 1, 1, 1, 1, 1, 1, 1, 1, 1, 1, 1, 1, 1, 1, 1, 1, 1, 1, 1, 1, 1, 1, 1, 1, 1, 1, 1, 1, 1, 1, 1, 1, 1, 1, 1, 1, 1, 1, 1, 1, 1, 1, 1, 1, 1, 1, 1, 1, 1, 1, 1, 1, 1, 1, 1, 1, 1, 1, 1, 1, 1, 1, 1, 1, 1, 1, 1, 1, 1, 1, 1, 1, 1, 1, 1, 1, 1, 1, 1, 1, 1, 1, 1, 1, 1, 1, 1, 1, 1, 1, 1, 1, 1, 1, 1, 1, 1, 1, 1, 1, 1, 1, 1, 1, 1, 1, 1, 1, 1, 1, 1, 1, 1, 1, 1, 1, 1, 1, 1, 1, 1, 1, 1, 1, 1, 1, 1, 1, 1, 1, 1, 1, 1, 1, 1, 1, 1, 1, 1, 1, 1, 1, 1, 1, 1, 1, 1, 1, 1, 1, 1, 1, 1, 1, 1, 1, 1, 1, 1, 1, 1, 1, 1, 1, 1, 1, 1, 1, 1, 1, 1, 1, 1, 1, 1, 1, 1, 1, 1, 1, 1, 1, 1, 1, 1, 1, 1, 1, 1, 1, 1, 1, 1, 1, 1, 1, 1, 1, 1, 1, 1, 1, 1, 1, 1, 1, 1, 1, 1, 1, 1, 1, 1, 1, 1, 1, 1, 1, 1, 1, 1, 1, 1, 1, 1, 1, 1, 1, 1, 1, 1, 1, 1, 1, 1, 1, 1, 1, 1, 1, 1, 1, 1, 1, 1, 1, 1, 1, 1, 1, 1, 1, 1, 1, 1, 1, 1, 1, 1, 1, 1, 1, 1, 1, 1, 1, 1, 1, 1, 1, 1, 1, 1, 1, 1, 1, 1, 1, 1, 1, 1, 1, 1, 1, 1, 1, 1, 1, 1, 1, 1, 1, 1, 1, 1, 1, 1, 1, 1, 1, 1, 1, 1, 1, 1, 1, 1, 1, 1, 1, 1, 1, 1, 1, 1, 1, 1, 1, 1, 1, 1, 1, 1, 1, 1, 1, 1, 1, 1, 1, 1, 1, 1, 1, 1, 1, 1, 1, 1, 1, 1, 1, 1, 1, 1, 1, 1, 1, 1, 1, 1, 1, 1, 1, 1, 1, 1, 1, 1, 1, 1, 1, 1, 1, 1, 1, 1, 1, 1, 1, 1, 1, 1, 1, 1, 1, 1, 1, 1, 1, 1, 1, 1, 1, 1, 1, 1, 1, 1, 1, 1, 1, 1, 1, 1, 1, 1, 1, 1, 1, 1, 1, 1, 1, 1, 1, 1, 1, 1, 1, 1, 1, 1, 1, 1, 1, 1, 1, 1, 1, 1, 1, 1, 1, 1, 1, 1, 1, 1, 1, 1, 1, 1, 1, 1, 1, 1, 1, 1, 1, 1, 1, 1, 1, 1, 1, 1, 1, 1, 1, 1, 1, 1, 1, 1, 1, 1, 1, 1, 1, 1, 1, 1, 1, 1, 1, 1, 1, 1, 1, 1, 1, 1, 1, 1, 1, 1, 1, 1, 1, 1, 1, 1, 1, 1, 1, 1, 1, 1, 1, 1, 1, 1, 1, 1, 1, 1, 1, 1, 1, 1, 1, 1, 1, 1, 1, 1, 1, 1, 1, 1, 1, 1, 1, 1, 1, 1, 1, 1, 1, 1, 1, 1, 1, 1, 1, 1, 1, 1, 1, 1, 1, 1, 1, 1, 1, 1, 1, 1, 1, 1, 1, 1, 1, 1, 1, 1, 1, 1, 1, 1, 1, 1, 1, 1, 1, 1, 1, 1, 1, 1, 1, 1, 1, 1, 1, 1, 1, 1, 1, 1, 1, 1, 1, 1, 1, 1, 1, 1, 1, 1, 1, 1, 1, 1, 1, 1, 1, 1, 1, 1, 1, 1, 1, 1, 1, 1, 1, 1, 1, 1, 1, 1, 1, 1, 1, 1, 1, 1, 1, 1, 1, 1, 1, 1, 1, 1, 1, 1, 1, 1, 1, 1, 1, 1, 1, 1, 1, 1, 1, 1, 1, 1, 1, 1, 1, 1, 1, 1, 1, 1, 1, 1, 1, 1, 1, 1, 1, 1, 1, 1, 1, 1, 1, 1, 1, 1, 1, 1, 1, 1, 1, 1, 1, 1, 1, 1, 1, 1, 1, 1, 1, 1, 1, 1, 1, 1, 1, 1, 1, 1, 1, 1, 1, 1, 1, 1, 1, 1, 1, 1, 1, 1, 1, 1, 1, 1, 1, 1, 1, 1, 1, 1, 1, 1, 1, 1, 1, 1, 1, 1, 1, 1, 1, 1, 1, 1, 1, 1, 1, 1, 1, 1, 1, 1, 1, 1, 1, 1, 1, 1, 1, 1, 1, 1, 1, 1, 1, 1, 1, 1, 1, 1, 1, 1, 1, 1, 1, 1, 1, 1, 1, 1, 1, 1, 1, 1, 1, 1, 1, 1, 1, 1, 1, 1, 1, 1, 1, 1, 1, 1, 1, 1, 1, 1, 1, 1, 1, 1, 1, 1, 1, 1, 1, 1, 1, 1, 1, 1, 1, 1, 1, 1, 1, 1, 1, 1, 1, 1, 1, 1, 1, 1, 1, 1, 1, 1, 1, 1, 1, 1, 1, 1, 1, 1, 1, 1, 1, 1, 1, 1, 1, 1, 1, 1, 1, 1, 1, 1, 1, 1, 1, 1, 1, 1, 1, 1, 1, 1, 1, 1, 1, 1, 1, 1, 1, 1, 1, 1, 1, 1, 1, 1, 1, 1, 1, 1, 1, 1, 1, 1, 1, 1, 1, 1, 1, 1, 1, 1, 1, 1, 1, 1, 1, 1, 1, 1, 1, 1, 1, 1, 1, 1, 1, 1, 1, 1, 1, 1, 1, 1, 1, 1, 1, 1, 1, 1, 1, 1, 1, 1, 1, 1, 1, 1, 1, 1, 1, 1, 1, 1, 1, 1, 1, 1, 1, 1, 1, 1, 1, 1, 1, 1, 1, 1, 1, 1, 1, 1, 1, 1, 1, 1, 1, 1, 1, 1, 1, 1, 1, 1, 1, 1, 1, 1, 1, 1, 1, 1, 1, 1, 1, 1, 1, 1, 1, 1, 1, 1];
start = 381;
end= 239;
tasks = 2;
task = array2d(1..tasks, 1..nodes, [0, 0, 0, 0, 0, 0, 0, 0, 0, 0, 0, 0, 0, 0, 0, 0, 0, 0, 0, 0, 0, 0, 0, 0, 0, 0, 0, 0, 0, 0, 0, 0, 0, 0, 0, 0, 0, 0, 0, 0, 0, 0, 0, 0, 0, 0, 0, 0, 0, 0, 0, 0, 0, 0, 0, 0, 0, 0, 0, 0, 0, 0, 0, 0, 0, 0, 0, 0, 0, 0, 0, 0, 0, 0, 0, 0, 0, 0, 0, 0, 0, 0, 0, 0, 0, 0, 0, 0, 0, 0, 0, 0, 0, 0, 0, 0, 0, 0, 0, 0, 0, 0, 0, 0, 0, 0, 0, 0, 0, 0, 0, 0, 0, 0, 0, 0, 0, 0, 0, 0, 0, 0, 0, 0, 0, 0, 0, 0, 0, 0, 0, 0, 0, 0, 0, 0, 0, 0, 0, 0, 0, 0, 0, 0, 0, 0, 0, 0, 0, 0, 0, 0, 0, 0, 0, 0, 0, 0, 0, 0, 0, 0, 0, 0, 0, 0, 0, 0, 0, 0, 0, 0, 0, 0, 0, 0, 0, 0, 0, 0, 0, 0, 0, 0, 0, 0, 0, 0, 0, 0, 0, 0, 0, 0, 0, 0, 0, 0, 0, 0, 0, 0, 0, 0, 0, 0, 0, 0, 0, 0, 0, 0, 0, 0, 0, 0, 0, 0, 0, 0, 0, 0, 0, 0, 0, 0, 0, 0, 0, 0, 0, 0, 0, 0, 0, 0, 0, 0, 0, 0, 0, 0, 0, 0, 0, 0, 0, 0, 0, 0, 0, 0, 0, 0, 0, 0, 0, 0, 0, 0, 0, 0, 0, 0, 0, 0, 0, 0, 0, 0, 0, 0, 0, 0, 0, 0, 0, 0, 0, 0, 0, 0, 0, 0, 0, 0, 0, 0, 0, 0, 0, 0, 0, 0, 0, 0, 0, 0, 0, 0, 0, 0, 0, 0, 0, 0, 0, 0, 0, 0, 0, 0, 0, 0, 0, 0, 0, 0, 0, 0, 0, 0, 0, 0, 0, 0, 0, 0, 0, 0, 0, 0, 1, 0, 0, 0, 0, 0, 0, 0, 0, 0, 0, 0, 0, 0, 0, 0, 0, 0, 0, 0, 0, 0, 0, 0, 0, 0, 0, 0, 0, 0, 0, 0, 0, 0, 0, 0, 0, 0, 0, 0, 0, 0, 0, 0, 0, 0, 0, 0, 0, 0, 0, 0, 0, 0, 0, 0, 0, 0, 0, 0, 0, 0, 0, 0, 0, 0, 0, 0, 0, 0, 0, 0, 0, 0, 0, 0, 0, 0, 0, 0, 0, 0, 0, 0, 0, 0, 0, 0, 0, 0, 0, 0, 0, 0, 0, 0, 0, 0, 0, 0, 0, 0, 0, 0, 0, 0, 0, 0, 0, 0, 0, 0, 0, 0, 0, 0, 0, 0, 0, 0, 0, 0, 0, 0, 0, 0, 0, 0, 0, 0, 0, 0, 0, 0, 0, 0, 0, 0, 0, 0, 0, 0, 0, 0, 0, 0, 0, 0, 0, 0, 0, 0, 0, 0, 0, 0, 0, 0, 0, 0, 0, 0, 0, 0, 0, 0, 0, 0, 0, 0, 0, 0, 0, 0, 0, 0, 0, 0, 0, 0, 0, 0, 0, 0, 0, 0, 0, 0, 0, 0, 0, 0, 0, 0, 0, 0, 0, 0, 0, 0, 0, 0, 0, 0, 0, 0, 0, 0, 0, 0, 0, 0, 0, 0, 0, 0, 0, 0, 0, 0, 0, 0, 0, 0, 0, 0, 0, 0, 0, 0, 0, 0, 0, 0, 0, 0, 0, 0, 0, 0, 0, 0, 0, 0, 0, 0, 0, 0, 0, 0, 0, 0, 0, 0, 0, 0, 0, 0, 0, 0, 0, 0, 0, 0, 0, 0, 0, 0, 0, 0, 0, 0, 0, 0, 0, 0, 0, 0, 0, 0, 0, 0, 0, 0, 0, 0, 0, 0, 0, 0, 0, 0, 0, 0, 0, 0, 0, 0, 0, 0, 0, 0, 0, 0, 0, 0, 0, 0, 0, 0, 0, 0, 0, 0, 0, 0, 0, 0, 0, 0, 0, 0, 0, 0, 0, 0, 0, 0, 0, 0, 0, 0, 0, 0, 0, 0, 0, 0, 0, 0, 0, 0, 0, 0, 0, 0, 0, 0, 0, 0, 0, 0, 0, 0, 0, 0, 0, 0, 0, 0, 0, 0, 0, 0, 0, 0, 0, 0, 0, 0, 0, 0, 0, 0, 0, 0, 0, 0, 0, 0, 0, 0, 0, 0, 0, 0, 0, 0, 0, 0, 0, 0, 0, 0, 0, 0, 0, 0, 0, 0, 0, 0, 0, 0, 0, 0, 0, 0, 0, 0, 0, 0, 0, 0, 0, 0, 0, 0, 0, 0, 0, 0, 0, 0, 0, 0, 0, 0, 0, 0, 0, 0, 0, 0, 0, 0, 0, 0, 0, 0, 0, 0, 0, 0, 0, 0, 0, 0, 0, 0, 0, 0, 0, 0, 0, 0, 0, 0, 0, 0, 0, 0, 0, 0, 0, 0, 0, 0, 0, 0, 0, 0, 0, 0, 0, 0, 0, 0, 0, 0, 0, 0, 0, 0, 0, 0, 0, 0, 0, 0, 0, 0, 0, 0, 0, 0, 0, 0, 0, 0, 0, 0, 0, 0, 0, 0, 0, 0, 0, 0, 0, 0, 0, 0, 0, 0, 0, 0, 0, 0, 0, 0, 0, 0, 0, 0, 0, 0, 0, 0, 0, 0, 0, 0, 0, 0, 0, 0, 0, 0, 0, 0, 0, 0, 0, 0, 0, 0, 0, 0, 0, 0, 0, 0, 0, 0, 0, 0, 0, 0, 0, 0, 0, 0, 0, 0, 0, 0, 0, 0, 0, 0, 0, 0, 0, 0, 0, 0, 0, 0, 0, 0, 0, 0, 0, 0, 0, 0, 0, 0, 0, 0, 0, 0, 0, 0, 0, 0, 0, 0, 0, 0, 0, 0, 0, 0, 0, 0, 0, 0, 0, 0, 0, 0, 0, 0, 0, 0, 0, 0, 0, 0, 0, 0, 0, 0, 0, 0, 0, 0, 0, 0, 0, 0, 0, 0, 0, 0, 0, 0, 0, 0, 0, 0, 0, 0, 0, 0, 0, 0, 0, 0, 0, 0, 0, 0, 0, 0, 0, 0, 0, 0, 0, 0, 0, 0, 0, 0, 0, 0, 0, 0, 0, 0, 0, 0, 0, 0, 0, 0, 0, 0, 0, 0, 0, 0, 0, 0, 0, 0, 0, 0, 0, 0, 0, 0, 0, 0, 0, 0, 0, 0, 0, 0, 0, 0, 0, 0, 0, 0, 0, 0, 0, 0, 0, 0, 0, 0, 0, 0, 0, 0, 0, 0, 0, 0, 0, 0, 0, 0, 0, 0, 0, 0, 0, 0, 0, 0, 0, 0, 0, 0, 0, 0, 0, 0, 0, 0, 0, 0, 0, 0, 0, 0, 0, 0, 0, 0, 0, 0, 0, 0, 0, 0, 0, 0, 0, 0, 0, 0, 0, 0, 0, 0, 0, 0, 0, 0, 0, 0, 0, 0, 0, 0, 0, 0, 0, 0, 0, 0, 0, 0, 0, 0, 0, 0, 0, 0, 0, 0, 0, 0, 0, 0, 0, 0, 0, 0, 0, 0, 0, 0, 0, 0, 0, 0, 0, 0, 0, 0, 0, 0, 0, 0, 0, 0, 0, 0, 0, 0, 0, 0, 0, 0, 0, 0, 0, 0, 0, 0, 0, 0, 0, 0, 0, 0, 0, 0, 0, 0, 0, 0, 0, 0, 0, 0, 0, 0, 0, 0, 0, 0, 0, 0, 0, 0, 0, 0, 0, 0, 0, 0, 0, 0, 0, 0, 0, 0, 0, 0, 0, 0, 0, 0, 0, 0, 0, 0, 0, 0, 0, 0, 0, 0, 0, 0, 0, 0, 0, 0, 0, 0, 0, 0, 0, 0, 0, 0, 0, 0, 0, 0, 0, 0, 0, 0, 0, 0, 0, 0, 0, 0, 0, 0, 0, 0, 0, 0, 0, 0, 0, 0, 0, 0, 0, 0, 0, 0, 0, 0, 0, 0, 0, 0, 0, 0, 0, 0, 0, 0, 0, 0, 0, 0, 0, 0, 0, 0, 0, 0, 0, 0, 0, 0, 0, 0, 0, 0, 0, 0, 0, 0, 0, 0, 0, 0, 0, 0, 0, 0, 0, 0, 0, 0, 0, 0, 0, 0, 0, 0, 0, 0, 0, 0, 0, 0, 0, 0, 0, 0, 0, 0, 0, 0, 0, 0, 0, 0, 0, 0, 0, 0, 0, 0, 0, 0, 0, 0, 0, 0, 0, 0, 0, 0, 0, 0, 0, 0, 0, 0, 0, 0, 0, 0, 0, 0, 0, 0, 0, 0, 0, 0, 0, 0, 0, 0, 0, 0, 0, 0, 0, 0, 0, 0, 0, 0, 0, 0, 0, 0, 0, 0, 0, 0, 0, 0, 0, 0, 0, 0, 0, 0, 0, 0, 0, 0, 0, 0, 0, 0, 0, 0, 0, 0, 0, 0, 0, 0, 0, 0, 0, 0, 0, 0, 0, 0, 0, 0, 0, 0, 0, 0, 0, 0, 0, 0, 0, 0, 0, 0, 0, 0, 0, 0, 0, 0, 0, 0, 0, 0, 0, 0, 0, 0, 0, 0, 0, 0, 0, 0, 0, 0, 0, 0, 0, 0, 0, 0, 0, 0, 0, 0, 0, 0, 0, 0, 0, 0, 0, 0, 0, 0, 0, 0, 0, 0, 0, 0, 0, 0, 0, 0, 0, 0, 0, 0, 0, 0, 0, 0, 0, 0, 0, 0, 0, 0, 0, 0, 0, 0, 0, 0, 0, 0, 0, 0, 0, 0, 0, 0, 0, 0, 0, 0, 0, 0, 0, 0, 0, 0, 0, 0, 0, 0, 0, 0, 0, 0, 0, 0, 0, 0, 0, 0, 0, 0, 0, 0, 0, 0, 0, 0, 0, 0, 0, 0, 0, 0, 0, 0, 0, 0, 0, 0, 0, 0, 0, 0, 0, 0, 0, 0, 0, 0, 0, 0, 0, 0, 0, 0, 0, 0, 0, 0, 0, 0, 0, 0, 0, 0, 0, 0, 0, 0, 0, 0, 0, 0, 0, 0, 0, 0, 0, 0, 0, 0, 0, 0, 0, 0, 0, 0, 0, 0, 0, 0, 0, 0, 0, 0, 0, 0, 1, 0, 0, 0, 0, 0, 0, 0, 0, 0, 0, 0, 0, 0, 0, 0, 0, 0, 0, 0, 0, 0, 0, 0, 0, 0, 0, 0, 0, 0, 0, 0, 0, 0, 0, 0]);
